g3 9 1 0	# problem core1
 65 50 1 0 41	# vars, constraints, objectives, ranges, eqns
 24 0	# nonlinear constraints, objectives
 0 0	# network constraints: nonlinear, linear
 24 0 0	# nonlinear vars in constraints, objectives, both
 0 0 0 1	# linear network variables; functions; arith, flags
 0 0 0 0 0	# discrete variables: binary, integer, nonlinear (b,c,o)
 147 6	# nonzeros in Jacobian, gradients
 0 0	# max name lengths: constraints, variables
 0 0 0 0 0	# common exprs: b,c,o,c1,o1
C0	#arc1
o5	#^
v0	#Flow[1]
n2
C1	#arc2
o5	#^
v1	#Flow[2]
n2
C2	#arc3
o5	#^
v2	#Flow[3]
n2
C3	#arc4
o5	#^
v3	#Flow[4]
n2
C4	#arc5
o5	#^
v4	#Flow[5]
n2
C5	#arc6
o5	#^
v5	#Flow[6]
n2
C6	#arc7
o5	#^
v6	#Flow[7]
n2
C7	#arc8
o5	#^
v7	#Flow[8]
n2
C8	#arc9
o5	#^
v8	#Flow[9]
n2
C9	#arc10
o5	#^
v9	#Flow[10]
n2
C10	#arc11
o5	#^
v10	#Flow[11]
n2
C11	#arc12
o5	#^
v11	#Flow[12]
n2
C12	#arc13
o5	#^
v12	#Flow[13]
n2
C13	#arc14
o5	#^
v13	#Flow[14]
n2
C14	#arc15
o5	#^
v14	#Flow[15]
n2
C15	#arc16
o5	#^
v15	#Flow[16]
n2
C16	#arc17
o5	#^
v16	#Flow[17]
n2
C17	#arc18
o5	#^
v17	#Flow[18]
n2
C18	#arc19
o5	#^
v18	#Flow[19]
n2
C19	#arc20
o5	#^
v19	#Flow[20]
n2
C20	#arc21
o5	#^
v20	#Flow[21]
n2
C21	#arc22
o5	#^
v21	#Flow[22]
n2
C22	#arc23
o5	#^
v22	#Flow[23]
n2
C23	#arc24
o5	#^
v23	#Flow[24]
n2
C24	#node1
n0
C25	#node2
n0
C26	#node3
n0
C27	#node4
n0
C28	#node5
n0
C29	#node6
n0
C30	#node7
n0
C31	#node8
n0
C32	#node9
n0
C33	#node10
n0
C34	#node11
n0
C35	#node12
n0
C36	#node13
n0
C37	#node14
n0
C38	#node15
n0
C39	#node16
n0
C40	#node17
n0
C41	#node18
n0
C42	#node19
n0
C43	#node20
n0
C44	#prod1
n0
C45	#prod2
n0
C46	#prod3
n0
C47	#prod4
n0
C48	#prod5
n0
C49	#prod6
n0
O0 0	#cost
n0
x24	# initial guess
0 5.797
1 5.797
2 9.997
3 9.997
4 16.076
5 4.8
6 0.766
7 -4.49
8 11.586
9 17.2404
10 2.10363
11 17.2404
12 2.10363
13 11.5676
14 1.41145
15 10.838
16 8.718
17 9.918
18 22.464
19 15.616
20 2.141
21 2.141
22 2.141
23 1.919
r	#50 ranges (rhs's)
4 0
4 0
4 0
4 0
4 0
4 0
4 0
4 0
4 0
2 0
2 0
4 0
4 0
4 0
4 0
4 0
4 0
4 0
4 0
4 0
4 0
2 0
4 0
4 0
4 0
4 0
4 0
4 0
4 0
4 0
4 0
4 0
4 0
4 0
4 0
4 0
4 0
4 0
4 0
4 0
4 0
4 0
4 0
4 0
1 0
1 0
1 0
1 0
1 0
1 0
b	#65 bounds (on variables)
0 -220.12 220.12
0 -220.12 220.12
0 -220.12 220.12
0 -220.12 220.12
0 -220.12 220.12
0 -220.12 220.12
0 -220.12 220.12
0 -220.12 220.12
0 -220.12 220.12
0 0 220.12
0 0 220.12
0 -220.12 220.12
0 -220.12 220.12
0 -220.12 220.12
0 -220.12 220.12
0 -220.12 220.12
0 -220.12 220.12
0 -220.12 220.12
0 -220.12 220.12
0 -220.12 220.12
0 -220.12 220.12
0 0 220.12
0 -220.12 220.12
0 -220.12 220.12
0 8.87 11.594
0 0 8.4
0 0 4.8
0 20.344 22.012
0 0 1.2
0 0 0.96
0 -1.e8 11.594
0 -1.e8  8.4
0 -1.e8  4.8
0 -1.e8 22.012
0 -1.e8  1.2
0 -1.e8 0.96
0 3.918 1.e8
0 4.034 1.e8
0 5.256 1.e8
0 6.365 1.e8
0 2.12 1.e8
0 6.848 1.e8
0 15.616 1.e8
0 0.222 1.e8
0 1.919 1.e8
0 0 5929 
0 0 5929 
0 900 6400
0 0 6400
0 0 5929
0 900 6400
0 900 6400
0 2500 4382.44
0 0 4382.44
0 900 4382.44
0 0 4382.44
0 900 4382.44
0 0 4382.44
0 0 4382.44
0 900 4382.44
0 2500 4382.44
0 0 4382.44
0 0 3969
0 625 4382.44
0 625 4382.44
k64	#intermediate Jacobian column lengths
3
6
9
12
15
18
21
24
27
30
33
36
39
42
45
48
51
54
57
60
63
66
69
72
73
74
75
76
77
78
80
82
84
86
88
90
91
92
93
94
95
96
97
98
99
101
105
108
111
112
114
116
118
122
126
130
132
134
137
139
140
142
144
146
J0 3
0 0
45 -9.07027
46 9.07027
J1 3
1 0
45 -9.07027
46 9.07027
J2 3
2 0
46 -6.04685
47 6.04685
J3 3
3 0
46 -6.04685
47 6.04685
J4 3
4 0
47 -1.39543
48 1.39543
J5 3
5 0
49 -0.100256
50 0.100256
J6 3
6 0
50 -0.148655
51 0.148655
J7 3
7 0
48 0.226895
51 -0.226895
J8 3
8 0
48 -0.659656
58 0.659656
J9 3
9 0
52 -7.25622
53 7.25622
J10 3
10 0
52 -0.10803
53 0.10803
J11 3
11 0
53 -1.81405
54 1.81405
J12 3
12 0
53 -0.0270084
54 0.0270084
J13 3
13 0
54 -1.45124
55 1.45124
J14 3
14 0
54 -0.0216067
55 0.0216067
J15 3
15 0
55 -0.863836
56 0.863836
J16 3
16 0
56 -0.907027
57 0.907027
J17 3
17 0
57 -7.25622
58 7.25622
J18 3
18 0
58 -3.62811
59 3.62811
J19 3
19 0
59 -1.45124
60 1.45124
J20 3
20 0
55 -0.0514445
61 0.0514445
J21 3
21 0
61 -0.00641977
62 0.00641977
J22 3
22 0
62 -0.0017032
63 0.0017032
J23 3
23 0
63 -0.027819
64 0.027819
J24 3
0 1
1 1
30 -1
J25 5
0 -1
1 -1
2 1
3 1
31 -1
J26 4
2 -1
3 -1
4 1
36 1
J27 3
4 -1
7 -1
8 1
J28 2
5 1
32 -1
J29 3
5 -1
6 1
37 1
J30 3
6 -1
7 1
38 1
J31 3
9 1
10 1
33 -1
J32 4
9 -1
10 -1
11 1
12 1
J33 5
11 -1
12 -1
13 1
14 1
39 1
J34 4
13 -1
14 -1
15 1
20 1
J35 3
15 -1
16 1
40 1
J36 3
16 -1
17 1
34 -1
J37 4
8 -1
17 -1
18 1
35 -1
J38 3
18 -1
19 1
41 1
J39 2
19 -1
42 1
J40 2
20 -1
21 1
J41 2
21 -1
22 1
J42 3
22 -1
23 1
43 1
J43 2
23 -1
44 1
J44 2
24 -1
30 1
J45 2
25 -1
31 1
J46 2
26 -1
32 1
J47 2
27 -1
33 1
J48 2
28 -1
34 1
J49 2
29 -1
35 1
G0 6
24 2.28
25 2.28
26 2.28
27 1.68
28 1.68
29 1.6
8
